# Oleic acid simulation

# initialization
units			real
atom_style		molecular
boundary		p p p
bond_style		harmonic
angle_style		harmonic
dihedral_style		opls
improper_style		harmonic

variable		TargetT equal 355
# variable		TargetP equal 18.78

read_data		bighex.data
# read_restart		restart.trappe

group			CH3 type 1
group			CH2 type 2
group			solvent type 1 2

# compute			MyTemp solvent temp

# define interactions
pair_style		lj/cut 14.0
pair_modify		shift yes mix arithmetic

pair_coeff		1 1 0.195 3.75			# for CH3 atoms
pair_coeff		2 2 0.0914 3.95			# for CH2 atoms

bond_coeff		1 95.9 1.54

angle_coeff		1 62.1 114

dihedral_coeff		1 1.4114 -0.2711 3.1458 0

# calculate solvent density here
variable		TargetDens equal 0.02756
variable		xlo equal -5
variable		xhi equal 40
variable		ylo equal -40
variable		yhi equal 3
variable		zlo equal -5
variable		zhi equal 50
region			BulkSolv block ${xlo} ${xhi} ${ylo} ${yhi} ${zlo} ${zhi} side in units box
variable		SolvDens equal count(solvent,BulkSolv)/((v_xhi-v_xlo)*(v_yhi-v_ylo)*(v_zhi-v_zlo))

# simulation parameters
thermo_style		custom step temp etotal ke pe press v_SolvDens
thermo			100

fix			1 solvent nvt temp ${TargetT} ${TargetT} 50
fix			plm all plumed plumedfile test.plu outfile test.out
minimize		1.0e-4 1.0e-6 100 1000
reset_timestep		0
# fix			1 solvent npt temp ${TargetT} ${TargetT} 10 iso ${TargetP} ${TargetP} 1000
reset_timestep		0
dump			myDump all xyz 100 dump-trappe.xyz
run			50000 post no
write_restart		restart.trappe

unfix			1
undump			myDump


